/*********************************************
 * OPL 12.6.0.0 Data
 * Author: Adrian Rodriguez Bazaga, Pau Rodriguez Esmerats
 * Creation Date: 09/12/2017 at 00:43:06
 *********************************************/

maxConsec=8;
maxPresence=8;
maxHours=6;
minHours=1;
hours=20;
demand= [12 16 16 13 16 12 11 11 5 1 1 0 0 0 0 0 0 0 0 0  ];
nNurses=16;
